10088.72,60.29,74.79
10721.62,56.73,70.37
10654.55,57.09,70.81
10157.98,59.88,74.28
10725.35,56.71,70.35
9404.14,64.67,80.23
10123.14,60.08,74.53
9926.76,61.27,76.01
9195.84,66.14,82.05
9734.2,62.48,77.51
10246.25,59.36,73.64
10299.1,59.06,73.26
9875.95,61.59,76.4
11081.27,54.89,68.09
11880.82,51.19,63.51
9565.45,63.58,78.88
10842.42,56.1,69.59
9780.12,62.19,77.14
10299.0,59.06,73.26
10048.56,60.53,75.08
